0
0
22
35
29
59
137
37
0
33
105
0
46
14
10
56
0
59
11
38
38
13
21
168
196
0
77
42
119
37
53
15
125
10
9
118
30
0
48
23
25
86
16
0
30
0
0
0
10
59
0
20
189
96
14
24
0
104
0
44
47
21
50
64
66
38
174
97
26
63
0
0
16
75
35
0
23
88
0
75
0
0
42
29
0
31
135
44
168
78
19
19
118
196
0
46
11
0
104
147
